c Random generated cnf formula, satisfiable: true
p cnf 10 50
10 2 -8 0
-10 2 1 0
-8 2 3 0
-2 -10 4 0
-10 1 -4 0
6 7 9 0
-9 -2 8 0
-3 -9 -7 0
-8 5 9 0
-10 -7 -3 0
8 7 1 0
-8 10 -7 0
-10 -2 5 0
-2 -7 -10 0
9 10 3 0
-7 -9 -10 0
-6 2 7 0
10 3 1 0
-1 8 -3 0
10 -6 -5 0
6 4 7 0
5 10 -6 0
-9 -8 -3 0
4 6 -1 0
-9 1 -4 0
-10 8 9 0
-2 5 -4 0
7 6 2 0
-3 10 9 0
9 2 1 0
-6 2 -3 0
4 -3 -1 0
7 10 -8 0
3 -9 -10 0
2 -5 6 0
4 -2 -1 0
-2 -10 6 0
7 2 9 0
-8 -5 -4 0
7 1 3 0
3 -8 7 0
-3 2 7 0
10 -9 -6 0
1 -8 -6 0
9 8 1 0
3 -2 -9 0
-4 9 5 0
6 3 -2 0
7 -8 6 0
3 9 4 0
